 $SYSTEM MWORDS= 2602 TIMLIM=2000000 $END
 $CONTRL SCFTYP=RHF RUNTYP=ENERGY ICHARG=0 MULT=1
         ISPHER=0 MAXIT=80 EXETYP=RUN PP=READ MPLEVL=2  $END
 $BASIS  BASNAM(1)=I                                    $END
 $SCF    DIRSCF=.F. DIIS=.T. SOSCF=.F.                  $END
 $MP2    CODE=IMS                                       $END
 $DATA
nnnA / MP2 / origin
C1
 I   53.0       7.400321    7.063955   13.220596
 I   53.0       7.724154    7.524773   10.548426
 $END
 $I
S   11
1         5.546500E+03           1.560000E-04
2         8.382140E+02           9.860000E-04
3         1.821870E+02           2.792000E-03
4         3.121230E+01          -4.325100E-02
5         1.953140E+01           2.341340E-01
6         8.240990E+00          -7.509430E-01
7         2.194550E+00           8.829680E-01
8         1.109110E+00           4.620610E-01
9         3.746410E-01           2.228600E-02
10        1.770800E-01          -4.353000E-03
11        8.106100E-02           1.102000E-03
S   1
1         3.746410E-01           1.000000E+00
S   1
1         1.770800E-01           1.000000E+00
S   11
1         5.546500E+03          -7.300000E-05
2         8.382140E+02          -5.080000E-04
3         1.821870E+02          -1.158000E-03
4         3.121230E+01           1.219300E-02
5         1.953140E+01          -8.785400E-02
6         8.240990E+00           3.382000E-01
7         2.194550E+00          -5.765500E-01
8         1.109110E+00          -4.092980E-01
9         3.746410E-01           5.674590E-01
10        1.770800E-01           6.124890E-01
11        8.106100E-02           1.432310E-01
S   1
1         1.001000E-01           1.000000E+00
P   9
1         1.889880E+02           5.850000E-04
2         2.128680E+01           3.692300E-02
3         1.003960E+01          -2.353240E-01
4         3.451800E+00           3.414830E-01
5         1.974560E+00           5.347880E-01
6         1.024200E+00           2.651410E-01
7         4.494370E-01           2.578700E-02
8         1.866480E-01           5.220000E-04
9         7.348100E-02           6.060000E-04
P   1
1         5.981000E-01           1.000000E+00
P   9
1         1.889880E+02          -2.560000E-04
2         2.128680E+01          -1.168200E-02
3         1.003960E+01           8.319200E-02
4         3.451800E+00          -1.569700E-01
5         1.974560E+00          -2.245180E-01
6         1.024200E+00          -1.144510E-01
7         4.494370E-01           3.753560E-01
8         1.866480E-01           5.751360E-01
9         7.348100E-02           2.459170E-01
P   1
1         9.618000E-02           1.000000E+00
D   9
1         1.326620E+02           5.720000E-04
2         3.760540E+01           4.402000E-03
3         1.038910E+01          -4.092200E-02
4         6.490170E+00           9.966100E-02
5         3.454510E+00           3.226630E-01
6         1.844130E+00           4.003430E-01
7         9.624780E-01           2.683060E-01
8         4.728530E-01           8.484700E-02
9         1.932000E-01           7.632000E-03
D   1
1         4.728530E-01           1.000000E+00
D   1
1         1.932000E-01           1.000000E+00
F   1
1         4.064000E-01           1.000000E+00

 $END
 $ECP
I-ECP GEN    28    4
1     ----- g-ul potential -----
      0.00000000      2       1.00000000
3     ----- s-g potential -----
     49.98964900      2      40.03337600
    281.00655600      2      17.30057600
     61.41673900      2       8.85172000
4     ----- p-g potential -----
     67.41623900      2      15.72014100
    134.80769600      2      15.20822200
     14.56654800      2       8.29418600
     28.96842200      2       7.75394900
4     ----- d-g potential -----
     35.53875600      2      13.81775100
     53.33975900      2      13.58780500
      9.71646600      2       6.94763000
     14.97750000      2       6.96009900
4     ----- f-g potential -----
    -20.17661800      2      18.52295000
    -26.08807700      2      18.25103500
     -0.22043400      2       7.55790100
     -0.22164600      2       7.59740400
I-ECP
I-ECP
I-ECP
I-ECP
 $END


